p cnf 14 20
-14 13 6 0
14 -9 -3 0
14 -6 -2 0
-13 -12 -5 0
-13 12 -2 0
13 6 4 0
-13 6 1 0
-12 -10 -8 0
12 -9 4 0
12 6 -4 0
11 -10 2 0
-11 8 -1 0
11 7 -6 0
11 -7 5 0
10 6 -2 0
-9 -8 5 0
-9 5 -1 0
-9 -3 2 0
8 -6 -4 0
8 -2 1 0
